evm/ejemplos_dzn/EthPriceMintModule_run_code_of_0_block_95_0_input.dzn
TERM = { '.', s0, s6, s7, s8, s9, s10, s11};
null = '.';
s = 7;
n = 6;
min = 7;
N0 = 0;
ZEROARYOP = {};
zeroout = [];
zerogas = [];
zerosz =  [];
zerolb =  [];
zeroub =  [];
N1 = 0;
UNARYOP = {};
unin =  [];
unout = [];
ungas = [];
unsz =  [];
unlb =  [];
unub =  [];
N2 = 1;
BINARYOP = { SHL_0 };
binin1 = [s10 ];
binin2 = [s11 ];
binout = [s7 ];
bincomm = [false ];
bingas = [3 ];
binsz = [1 ];
binlb = [ 1 ];
binub = [ 7 ];
NA = 0;
ASSOCIATIVEADDOP = {};
naddin =  [];
addin =  [||];
addout = [];
addcomm = [];
addgas = [];
addsz =  [];
addlb =  [];
addub =  [];
NPUSH = 5;
PUSHOP = { 'PUSH [tag]_0', 'PUSH [tag]_1', PUSH_0, PUSH_1, PUSH_2 };
pushout = [ s6, s8, s9, s10, s11 ];
pushgas = [ 3, 3, 3, 3, 3 ];
pushsz = [ 3, 3, 2, 2, 5 ];
pushlb = [ 1, 1, 1, 1, 1 ];
pushub = [ 7, 7, 7, 7, 7 ];
NSTORE = 0;
STOROP = {};
storin1 =  [];
storin2 =  [];
storlb =  [];
storub =  [];
storgas = [];
storsz = [];
DUP_ENUM = { DUP1, DUP2, DUP3, DUP4, DUP5};
SWAP_ENUM = { SWAP1, SWAP2, SWAP3, SWAP4, SWAP5};
startstack = [ s0, null, null, null, null, null ];
endstack = [ s6, s7, s0, s8, s9, s0 ];
m_dep_n = 0;
memory_dependences = [| |];
s_dep_n = 0;
store_dependences = [| |];
lib = false;
nlib = 0;
lib_elem = [| |];
lib_dis = [];
