evm/ejemplos_results/EthPriceMintModule_run_code_of_0_block_95_0_input.txt
value = 7;
fgas = [3, 3, 3, 3, 3, 3, 3];
fsize = [2, 3, 1, 5, 2, 1, 3];
states = 
[|  s0, '.', '.', '.', '.', '.'
 |  s9,  s0, '.', '.', '.', '.'
 |  s8,  s9,  s0, '.', '.', '.'
 |  s0,  s8,  s9,  s0, '.', '.'
 | s11,  s0,  s8,  s9,  s0, '.'
 | s10, s11,  s0,  s8,  s9,  s0
 |  s7,  s0,  s8,  s9,  s0, '.'
 |  s6,  s7,  s0,  s8,  s9,  s0
 |];
program = [P(PUSH_0), P('PUSH [tag]_1'), D(DUP3), P(PUSH_2), P(PUSH_1), BI(SHL_0), P('PUSH [tag]_0')];
% time elapsed: 0.90 s
----------
==========
% time elapsed: 0.90 s
% [value > 6]
